g3 0 1 0	# problem brownal
 20 0 1 0 0	# vars, constraints, objectives, ranges, eqns
 0 1	# nonlinear constraints, objectives
 0 0	# network constraints: nonlinear, linear
 0 20 0	# nonlinear vars in constraints, objectives, both
 0 0 0 1	# linear network variables; functions; arith, flags
 0 0 0 0 0	# discrete variables: binary, integer, nonlinear (b,c,o)
 0 20	# nonzeros in Jacobian, gradients
 0 0	# max name lengths: constraints, variables
 0 0 0 0 0	# common exprs: b,c,o,c1,o1
O0 0
o54
20
o5
o0
n-21
o54
21
v0
v1
v2
v3
v4
v5
v6
v7
v8
v9
v10
v11
v12
v13
v14
v15
v16
v17
v18
v19
v0
n2
o5
o0
n-21
o54
21
v0
v1
v2
v3
v4
v5
v6
v7
v8
v9
v10
v11
v12
v13
v14
v15
v16
v17
v18
v19
v1
n2
o5
o0
n-21
o54
21
v0
v1
v2
v3
v4
v5
v6
v7
v8
v9
v10
v11
v12
v13
v14
v15
v16
v17
v18
v19
v2
n2
o5
o0
n-21
o54
21
v0
v1
v2
v3
v4
v5
v6
v7
v8
v9
v10
v11
v12
v13
v14
v15
v16
v17
v18
v19
v3
n2
o5
o0
n-21
o54
21
v0
v1
v2
v3
v4
v5
v6
v7
v8
v9
v10
v11
v12
v13
v14
v15
v16
v17
v18
v19
v4
n2
o5
o0
n-21
o54
21
v0
v1
v2
v3
v4
v5
v6
v7
v8
v9
v10
v11
v12
v13
v14
v15
v16
v17
v18
v19
v5
n2
o5
o0
n-21
o54
21
v0
v1
v2
v3
v4
v5
v6
v7
v8
v9
v10
v11
v12
v13
v14
v15
v16
v17
v18
v19
v6
n2
o5
o0
n-21
o54
21
v0
v1
v2
v3
v4
v5
v6
v7
v8
v9
v10
v11
v12
v13
v14
v15
v16
v17
v18
v19
v7
n2
o5
o0
n-21
o54
21
v0
v1
v2
v3
v4
v5
v6
v7
v8
v9
v10
v11
v12
v13
v14
v15
v16
v17
v18
v19
v8
n2
o5
o0
n-21
o54
21
v0
v1
v2
v3
v4
v5
v6
v7
v8
v9
v10
v11
v12
v13
v14
v15
v16
v17
v18
v19
v9
n2
o5
o0
n-21
o54
21
v0
v1
v2
v3
v4
v5
v6
v7
v8
v9
v10
v11
v12
v13
v14
v15
v16
v17
v18
v19
v10
n2
o5
o0
n-21
o54
21
v0
v1
v2
v3
v4
v5
v6
v7
v8
v9
v10
v11
v12
v13
v14
v15
v16
v17
v18
v19
v11
n2
o5
o0
n-21
o54
21
v0
v1
v2
v3
v4
v5
v6
v7
v8
v9
v10
v11
v12
v13
v14
v15
v16
v17
v18
v19
v12
n2
o5
o0
n-21
o54
21
v0
v1
v2
v3
v4
v5
v6
v7
v8
v9
v10
v11
v12
v13
v14
v15
v16
v17
v18
v19
v13
n2
o5
o0
n-21
o54
21
v0
v1
v2
v3
v4
v5
v6
v7
v8
v9
v10
v11
v12
v13
v14
v15
v16
v17
v18
v19
v14
n2
o5
o0
n-21
o54
21
v0
v1
v2
v3
v4
v5
v6
v7
v8
v9
v10
v11
v12
v13
v14
v15
v16
v17
v18
v19
v15
n2
o5
o0
n-21
o54
21
v0
v1
v2
v3
v4
v5
v6
v7
v8
v9
v10
v11
v12
v13
v14
v15
v16
v17
v18
v19
v16
n2
o5
o0
n-21
o54
21
v0
v1
v2
v3
v4
v5
v6
v7
v8
v9
v10
v11
v12
v13
v14
v15
v16
v17
v18
v19
v17
n2
o5
o0
n-21
o54
21
v0
v1
v2
v3
v4
v5
v6
v7
v8
v9
v10
v11
v12
v13
v14
v15
v16
v17
v18
v19
v18
n2
o5
o0
n-1
o2
o2
o2
o2
o2
o2
o2
o2
o2
o2
o2
o2
o2
o2
o2
o2
o2
o2
o2
v0
v1
v2
v3
v4
v5
v6
v7
v8
v9
v10
v11
v12
v13
v14
v15
v16
v17
v18
v19
n2
x20
0 0.5
1 0.5
2 0.5
3 0.5
4 0.5
5 0.5
6 0.5
7 0.5
8 0.5
9 0.5
10 0.5
11 0.5
12 0.5
13 0.5
14 0.5
15 0.5
16 0.5
17 0.5
18 0.5
19 0.5
b
3
3
3
3
3
3
3
3
3
3
3
3
3
3
3
3
3
3
3
3
k19
0
0
0
0
0
0
0
0
0
0
0
0
0
0
0
0
0
0
0
G0 20
0 0
1 0
2 0
3 0
4 0
5 0
6 0
7 0
8 0
9 0
10 0
11 0
12 0
13 0
14 0
15 0
16 0
17 0
18 0
19 0
